# Objective value = 95605
x66 0
x67 1
x68 0
x69 0
x70 1
x71 0
x72 0
x73 1
x74 0
x75 1
x76 1
x77 0
x78 1
x79 0
x80 0
x81 0
x82 1
x83 0
x84 1
x85 1
x86 0
x87 0
x88 1
x89 0
x90 1
x91 1
x92 0
x93 1
x94 0
x95 1
x96 0
x97 1
x98 1
x99 0
x100 1
x101 1
x102 0
x103 1
x104 0
x105 1
x106 1
x107 0
x108 1
x109 1
x110 1
x111 0
x112 1
x113 0
x114 1
x115 1
x116 0
x117 1
x118 1
x119 1
x120 1
x121 1
x122 0
x123 1
x124 0
x125 0
x126 1
x127 0
x128 0
x129 0
x130 0
x131 0
x132 0
x133 1
x134 0
x135 1
x136 1
x137 0
x138 1
x139 1
x140 1
x141 1
x142 1
x143 0
x144 0
x145 1
x146 0
x147 1
x148 1
x149 0
x150 1
x151 1
x152 1
x153 1
x154 1
x155 0
x156 1
x157 0
x158 1
x159 0
x160 1
x161 1
x162 0
x163 1
x164 1
x165 1
x166 1
x167 1
x168 0
x169 1
x170 1
x171 0
x172 1
x173 0
x174 1
x175 1
x176 0
x177 1
x178 1
x179 1
x180 1
x181 1
x182 0
x183 1
x184 1
x185 1
x186 1
x187 0
x188 1
x189 0
x190 0
x191 1
x192 0
x193 0
x194 0
x195 0
x196 0
x197 1
x198 0
x199 0
x200 0
x201 0
x202 0
x203 1
x204 0
x205 1
x206 1
x207 1
x208 1
x209 0
x210 1
x211 0
x212 1
x213 1
x214 1
x215 1
x216 1
x217 0
x218 1
x219 0
x220 1
x221 1
x222 0
x223 1
x224 1
x225 1
x226 1
x227 0
x228 1
x229 0
x230 0
x231 0
x232 1
x233 0
x234 0
x235 0
x236 0
x237 0
x238 1
x239 1
x240 1
x241 1
x242 1
x243 1
x244 1
x245 1
x246 0
x247 0
x248 0
x249 1
x250 1
x251 1
x252 1
x253 1
x254 1
x255 1
x256 1
x257 0
x258 1
x259 1
x260 1
x261 0
x262 0
x263 0
x264 1
x265 0
x266 0
x267 0
x268 0
x269 1
x270 0
x271 0
x272 0
x273 0
x274 1
x275 1
x276 1
x277 1
x278 0
x279 1
x280 1
x281 1
x282 0
x283 1
x284 1
x285 0
x286 0
x287 1
x288 0
x289 1
x290 1
x291 0
x292 1
x293 1
x294 1
x295 1
x296 0
x297 1
x298 1
x299 0
x300 1
x301 1
x302 1
x303 0
x304 0
x305 0
x306 1
x307 0
x308 0
x309 0
x310 0
x311 1
x312 0
x313 0
x314 1
x315 0
x316 0
x317 0
x318 1
x319 1
x320 1
x321 1
x322 0
x323 1
x324 1
x325 1
x326 1
x327 0
x328 1
x329 1
x330 0
x331 1
x332 1
x333 0
x334 0
x335 1
x336 1
x337 1
x338 1
x339 0
x340 1
x341 1
x342 1
x343 1
x344 0
x345 1
x346 1
x347 0
x348 1
x349 1
x350 0
x351 1
x352 1
x353 0
x354 1
x355 0
x356 0
x357 0
x358 1
x359 0
x360 0
x361 0
x362 1
x363 0
x364 0
x365 1
x366 0
x367 0
x368 1
x369 0
x370 0
x371 0
x372 0
x373 1
x374 1
x375 1
x376 1
x377 0
x378 1
x379 1
x380 1
x381 0
x382 1
x383 1
x384 0
x385 1
x386 1
x387 0
x388 1
x389 1
x390 0
x391 0
x392 1
x393 1
x394 1
x395 1
x396 1
x397 0
x398 1
x399 1
x400 1
x401 0
x402 1
x403 1
x404 0
x405 1
x406 1
x407 0
x408 1
x409 1
x410 0
x411 1
x412 0
x413 1
x414 1
x415 1
x416 1
x417 1
x418 0
x419 1
x420 1
x421 1
x422 0
x423 1
x424 1
x425 0
x426 1
x427 1
x428 0
x429 1
x430 1
x431 0
x432 1
x433 1
x434 0
x435 1
x436 0
x437 1
x438 1
x439 0
x440 1
x441 1
x442 1
x443 0
x444 1
x445 0
x446 1
x447 0
x448 1
x449 1
x450 1
x451 1
x452 1
x453 1
x454 0
x455 1
x456 1
x457 1
x458 0
x459 1
x460 0
x461 0
x462 0
x463 0
x464 0
x465 0
x466 1
x467 1
x468 0
x469 0
x470 0
x471 1
x472 0
x473 1
x474 1
x475 1
x476 1
x477 1
x478 1
x479 0
x480 1
x481 1
x482 1
x483 0
x484 0
x485 1
x486 0
x487 1
x488 1
x489 1
x490 1
x491 1
x492 1
x493 0
x494 1
x495 1
x496 1
x497 0
x498 1
x499 0
x500 0
x501 0
x502 1
x503 1
x504 1
x505 1
x506 1
x507 1
x508 0
x509 1
x510 1
x511 1
x512 0
x513 1
x514 1
x515 0
x516 1
x517 0
x518 1
x519 1
x520 1
x521 1
x522 1
x523 1
x524 0
x525 1
x526 1
x527 1
x528 0
x529 1
x530 1
x531 1
x532 1
x533 0
x534 1
x535 0
x536 0
x537 0
x538 1
x539 0
x540 0
x541 1
x542 0
x543 0
x544 0
x545 1
x546 0
x547 0
x548 0
x549 0
x550 1
x551 0
x552 0
x553 1
x554 0
x555 0
x556 0
x557 1
x558 0
x559 0
x560 1
x561 0
x562 0
x563 1
x564 0
x565 0
x566 0
x567 0
x568 1
x569 0
x570 1
x571 1
x572 0
x573 1
x574 1
x575 1
x576 0
x577 1
x578 1
x579 1
x580 1
x581 1
x582 0
x583 1
x584 1
x585 1
x586 1
x587 0
x588 0
x589 0
x590 1
x591 1
x592 0
x593 1
x594 1
x595 1
x596 0
x597 1
x598 1
x599 1
x600 1
x601 1
x602 0
x603 1
x604 1
x605 1
x606 1
x607 0
x608 0
x609 1
x610 0
x611 1
x612 1
x613 0
x614 1
x615 0
x616 1
x617 0
x618 1
x619 1
x620 1
x621 1
x622 1
x623 0
x624 1
x625 1
x626 1
x627 1
x628 0
x629 0
x630 1
x631 1
x632 0
x633 1
x634 1
x635 1
x636 1
x637 0
x638 1
x639 0
x640 1
x641 1
x642 1
x643 1
x644 1
x645 0
x646 1
x647 1
x648 1
x649 1
x650 0
x651 0
x652 1
x653 1
x654 1
x655 1
x656 0
x657 0
x658 0
x659 0
x660 1
x661 1
x662 1
x663 0
x664 0
x665 0
x666 0
x667 0
x668 1
x669 0
x670 0
x671 0
x672 0
x673 1
x674 1
x675 0
x676 0
x677 0
x678 0
x679 0
x680 0
x681 1
x682 1
x683 1
x684 0
x685 1
x686 0
x687 1
x688 1
x689 1
x690 1
x691 1
x692 0
x693 1
x694 1
x695 1
x696 1
x697 0
x698 0
x699 1
x700 1
x701 1
x702 1
x703 0
x704 0
x705 1
x706 1
x707 1
x708 1
x709 0
x710 1
x711 0
x712 1
x713 1
x714 1
x715 1
x716 1
x717 0
x718 1
x719 1
x720 1
x721 1
x722 0
x723 0
x724 1
x725 1
x726 1
x727 1
x728 0
x729 1
x730 1
x731 0
x732 1
x733 0
x734 0
x735 1
x736 0
x737 0
x738 0
x739 1
x740 0
x741 0
x742 0
x743 1
x744 0
x745 1
x746 0
x747 0
x748 1
x749 0
x750 1
x751 1
x752 1
x753 1
x754 1
x755 1
x756 0
x757 1
x758 1
x759 1
x760 0
x761 1
x762 1
x763 0
x764 0
x765 0
x766 1
x767 0
x768 1
x769 1
x770 1
x771 1
x772 1
x773 1
x774 0
x775 0
x776 1
x777 1
x778 0
x779 1
x780 1
x781 1
x782 0
x783 1
x784 0
x785 1
x786 0
x787 1
x788 1
x789 1
x790 1
x791 1
x792 1
x793 0
x794 1
x795 1
x796 1
x797 0
x798 1
x799 1
x800 1
x801 0
x802 1
x803 1
x804 0
x805 1
x806 0
x807 1
x808 1
x809 1
x810 1
x811 1
x812 1
x813 0
x814 1
x815 1
x816 1
x817 1
x818 0
x819 0
x820 1
x821 0
x822 1
x823 1
x824 1
x825 1
x826 1
x827 1
x828 0
x829 0
x830 0
x831 0
x832 0
x833 0
x834 1
x835 0
x836 0
x837 0
x838 0
x839 1
x840 0
x841 1
x842 1
x843 0
x844 0
x845 0
x846 0
x847 0
x848 1
x849 0
x850 1
x851 1
x852 1
x853 1
x854 1
x855 1
x856 0
x857 1
x858 1
x859 1
x860 1
x861 0
x862 1
x863 1
x864 0
x865 1
x866 1
x867 1
x868 1
x869 0
x870 0
x871 1
x872 0
x873 1
x874 1
x875 1
x876 0
x877 1
x878 1
x879 0
x880 1
x881 1
x882 1
x883 1
x884 0
x885 1
x886 1
x887 0
x888 1
x889 1
x890 1
x891 1
x892 0
x893 1
x894 0
x895 1
x896 1
x897 0
x898 1
x899 1
x900 1
x901 0
x902 1
x903 1
x904 0
x905 1
x906 1
x907 0
x908 1
x909 1
x910 1
x911 0
x912 1
x913 1
x914 1
x915 1
x916 0
x917 1
x918 1
x919 0
x920 1
x921 1
x922 0
x923 1
x924 1
x925 1
x926 0
x927 1
x928 1
x929 1
x930 1
x931 1
x932 0
x933 1
x934 1
x935 1
x936 0
x937 1
x938 1
x939 1
x940 1
x941 0
x942 1
x943 1
x944 1
x945 0
x946 1
x947 1
x948 0
x949 1
x950 1
x951 1
x952 0
x953 1
x954 1
x955 1
x956 0
x957 1
x958 0
x959 1
x960 1
x961 1
x962 0
x963 1
x964 1
x965 1
x966 1
x967 0
x968 1
x969 1
x970 1
x971 1
x972 1
x973 0
x974 0
x975 1
x976 0
x977 1
x978 0
x979 1
x980 0
x981 0
x982 0
x983 0
x984 1
x985 1
x986 0
x987 0
x988 0
x989 1
x990 0
x991 0
x992 0
x993 0
x994 1
x995 0
x996 0
x997 0
x998 0
x999 0
x1000 0
x1001 1
x1002 1
x1003 1
x1004 1
x1005 0
x1006 1
x1007 0
x1008 1
x1009 1
x1010 1
x1011 1
x1012 1
x1013 1
x1014 0
x1015 1
x1016 1
x1017 0
x1018 1
x1019 1
x1020 1
x1021 1
x1022 0
x1023 1
x1024 1
x1025 1
x1026 1
x1027 1
x1028 0
x1029 0
x1030 1
x1031 1
x1032 1
x1033 1
x1034 0
x1035 0
x1036 0
x1037 1
x1038 1
x1039 1
x1040 1
x1041 1
x1042 1
x1043 0
x1044 1
x1045 1
x1046 0
x1047 1
x1048 1
x1049 1
x1050 1
x1051 0
x1052 1
x1053 1
x1054 1
x1055 1
x1056 1
x1057 0
x1058 1
x1059 1
x1060 1
x1061 0
x1062 0
x1063 0
x1064 1
x1065 0
x1066 1
x1067 0
x1068 0
x1069 0
x1070 1
x1071 0
x1072 0
x1073 1
x1074 0
x1075 0
x1076 1
x1077 0
x1078 0
x1079 0
x1080 0
x1081 1
x1082 0
x1083 0
x1084 0
x1085 0
x1086 0
x1087 1
x1088 0
x1089 0
x1090 0
x1091 1
x1092 1
x1093 1
x1094 1
x1095 0
x1096 1
x1097 0
x1098 1
x1099 1
x1100 1
x1101 1
x1102 0
x1103 1
x1104 0
x1105 1
x1106 1
x1107 0
x1108 1
x1109 1
x1110 1
x1111 1
x1112 0
x1113 1
x1114 1
x1115 1
x1116 1
x1117 1
x1118 0
x1119 1
x1120 1
x1121 0
x1 1
x2 0
x3 1
x4 0
x5 0
x6 1
x7 0
x8 0
x9 0
x10 0
x11 0
x12 1
x13 0
x14 0
x15 0
x16 0
x17 1
x18 0
x19 0
x20 0
x21 1
x22 0
x23 0
x24 1
x25 0
x26 0
x27 1
x28 0
x29 0
x30 1
x31 0
x32 0
x33 0
x34 0
x35 0
x36 1
x37 0
x38 0
x39 0
x40 0
x41 1
x42 1
x43 0
x44 0
x45 0
x46 0
x47 1
x48 0
x49 0
x50 1
x51 0
x52 0
x53 0
x54 0
x55 1
x56 0
x57 0
x58 0
x59 0
x60 0
x61 1
x62 0
x63 0
x64 1
x65 0
